(set-logic QF_S)
(set-option :strings-exp true)
(set-option :produce-models true)
(declare-fun sigmaStar_0 () String)
(declare-fun literal_4 () String)
(assert (= literal_4 "\x73\x63\x6f\x72\x65\x3a\x20\x3c\x69\x6e\x70\x75\x74\x20\x74\x79\x70\x65\x3d\x22\x74\x65\x78\x74\x22\x20\x6e\x61\x6d\x65\x3d\x22\x73\x63\x6f\x72\x65\x5b\x30\x5d\x22\x20\x76\x61\x6c\x75\x65\x3d\x22\x31\x22\x20\x73\x69\x7a\x65\x3d\x22\x35\x22\x3e"))
(assert (str.in.re literal_4 (re.++ (re.* re.allchar) (re.++ (str.to.re "\x5c\x3c\x53\x43\x52\x49\x50\x54") (re.* re.allchar)))))
(check-sat)
(get-model)
